data/MCDM/NO_CORR/GEN_FROM_60/12_ITEMS_1000_GEN/K5012W07.KNP.mps
NAME          BLANK   
ROWS
 N  OBJROW
 L  R0000000
COLUMNS
    C0000000  OBJROW     -424.         R0000000  73.         
    C0000001  OBJROW     -985.         R0000000  896.        
    C0000002  OBJROW     -341.         R0000000  969.        
    C0000003  OBJROW     -481.         R0000000  875.        
    C0000004  OBJROW     -376.         R0000000  534.        
    C0000005  OBJROW     -631.         R0000000  502.        
    C0000006  OBJROW     -890.         R0000000  24.         
    C0000007  OBJROW     -320.         R0000000  424.        
    C0000008  OBJROW     -282.         R0000000  627.        
    C0000009  OBJROW     -944.         R0000000  496.        
    C0000010  OBJROW     -73.          R0000000  341.        
    C0000011  OBJROW     -376.         R0000000  532.        
RHS
    RHS       R0000000  16386.      
BOUNDS
 BV BOUND     C0000000  1.          
 BV BOUND     C0000001  1.          
 BV BOUND     C0000002  1.          
 BV BOUND     C0000003  1.          
 BV BOUND     C0000004  1.          
 BV BOUND     C0000005  1.          
 BV BOUND     C0000006  1.          
 BV BOUND     C0000007  1.          
 BV BOUND     C0000008  1.          
 BV BOUND     C0000009  1.          
 BV BOUND     C0000010  1.          
 BV BOUND     C0000011  1.          
ENDATA
