data/MCDM/NO_CORR/GEN_FROM_60/12_ITEMS_1000_GEN/K5012W07.KNP.txt
N 12
M 13
LC 12
LC 13
LC 14
LC 15
LC 16
LC 17
LC 18
LC 19
LC 20
LC 21
LC 22
LC 23
LR 1
LR 2
LR 3
LR 4
LR 5
LR 6
LR 7
LR 8
LR 9
LR 10
LR 11
LR 12
LR 13
LO -424
LO -985
LO -341
LO -481
LO -376
LO -631
LO -890
LO -320
LO -282
LO -944
LO -73
LO -376
OS 1
IC 739
IC 289
IC 893
IC 967
IC 501
IC 848
IC 983
IC 405
IC 918
IC 797
IC 707
IC 206
IB 4127
